AES/1_5_4/ssaes_r1-20_c5_rw1_e4_f0_k1-20_aes_1base_box_aes_mc_bidirectional/ExperimentMinisat_r15_k16cnf_2011-10-30-030612/Result
WARNING: for repeatability, setting FPU to use double precision
============================[ Problem Statistics ]=============================
|                                                                             |
|  Number of variables:          1380                                         |
|  Number of clauses:            6110                                         |
|  Parse time:                   0.00 s                                       |
|  Eliminated clauses:           0.02 Mb                                      |
|  Simplification time:          0.00 s                                       |
|                                                                             |
=============================[ Search Statistics ]==============================
| Conflicts  |          ORIGINAL         |          LEARNT          | Progress |
|            |    Vars  Clauses Literals |    Limit  Clauses Lit/Cl |          |
================================================================================
|        100 |     960     4790    15680 |     1756      100     21 |  7.246 % |
|        250 |     960     4790    15680 |     1931      250     26 |  7.246 % |
|        475 |     960     4790    15680 |     2125      475     27 |  7.246 % |
|        812 |     960     4790    15680 |     2337      812     24 |  7.246 % |
|       1318 |     960     4790    15680 |     2571     1318     24 |  7.246 % |
|       2077 |     960     4790    15680 |     2828     2077     25 |  7.246 % |
|       3216 |     960     4790    15680 |     3111     1730     22 |  7.246 % |
|       4924 |     960     4790    15680 |     3422     1810     18 |  7.246 % |
|       7486 |     960     4790    15680 |     3764     2568     21 |  7.246 % |
|      11330 |     960     4790    15680 |     4141     2506     17 |  7.246 % |
|      17096 |     960     4790    15680 |     4555     3975     17 |  7.246 % |
|      25745 |     960     4790    15680 |     5011     3224     17 |  7.246 % |
|      38719 |     960     4790    15680 |     5512     3309     17 |  7.246 % |
|      58180 |     960     4790    15680 |     6063     3007     16 |  7.246 % |
|      87372 |     960     4790    15680 |     6669     4246     16 |  7.246 % |
|     131161 |     960     4790    15680 |     7336     3768     16 |  7.246 % |
|     196845 |     960     4790    15680 |     8070     5883     20 |  7.246 % |
|     295371 |     960     4790    15680 |     8877     5812     19 |  7.246 % |
|     443160 |     960     4790    15680 |     9765     4839     16 |  7.246 % |
|     664843 |     960     4790    15680 |    10741     8593     20 |  7.246 % |
|     997368 |     960     4790    15680 |    11815     9351     17 |  7.246 % |
|    1496156 |     960     4790    15680 |    12997     6078     16 |  7.246 % |
|    2244338 |     960     4790    15680 |    14297    12000     15 |  7.246 % |
|    3366612 |     960     4790    15680 |    15726     8382     17 |  7.246 % |
|    5050023 |     960     4790    15680 |    17299    10258     18 |  7.246 % |
===============================================================================
restarts              : 8316
conflicts             : 5364805        (9713 /sec)
decisions             : 5913369        (0.00 % random) (10706 /sec)
propagations          : 2467722390     (4467889 /sec)
conflict literals     : 116568737      (54.91 % deleted)
Memory used           : 15.00 MB
CPU time              : 552.324 s

SATISFIABLE
